# Solution for model Model5
# Objective value = 250662
y[j0_l0_i1] 1
y[j0_l1_i0] 1
y[j0_l2_i2] 1
y[j0_l3_i3] 1
y[j0_l4_i4] 1
y[j1_l0_i3] 1
y[j1_l1_i1] 1
y[j1_l2_i2] 1
y[j1_l3_i0] 1
y[j1_l4_i4] 1
y[j2_l0_i0] 1
y[j2_l1_i2] 1
y[j2_l2_i3] 1
y[j2_l3_i1] 1
y[j2_l4_i4] 1
y[j3_l0_i0] 1
y[j3_l1_i3] 1
y[j3_l2_i2] 1
y[j3_l3_i4] 1
y[j4_l0_i0] 1
y[j4_l1_i3] 1
y[j4_l2_i0] 1
y[j4_l3_i2] 1
y[j4_l4_i4] 1
x[j1l10_0_j2l20_0] 0
x[j1l10_0_j2l20_1] 0
x[j1l10_0_j2l20_2] 0
x[j1l10_0_j2l20_3] 0
x[j1l10_0_j2l20_4] 0
x[j1l10_0_j2l21_0] 0
x[j1l10_0_j2l21_1] 0
x[j1l10_0_j2l21_2] 0
x[j1l10_0_j2l21_3] 0
x[j1l10_0_j2l21_4] 0
x[j1l10_0_j2l22_0] 0
x[j1l10_0_j2l22_1] 0
x[j1l10_0_j2l22_2] 0
x[j1l10_0_j2l22_3] 1
x[j1l10_0_j2l22_4] 0
x[j1l10_0_j2l23_0] 0
x[j1l10_0_j2l23_1] 0
x[j1l10_0_j2l23_2] 0
x[j1l10_0_j2l23_3] 0
x[j1l10_0_j2l24_0] 0
x[j1l10_0_j2l24_1] 0
x[j1l10_0_j2l24_2] 0
x[j1l10_0_j2l24_3] 0
x[j1l10_0_j2l24_4] 0
x[j1l10_1_j2l20_0] 0
x[j1l10_1_j2l20_1] 0
x[j1l10_1_j2l20_2] 0
x[j1l10_1_j2l20_3] 0
x[j1l10_1_j2l20_4] 0
x[j1l10_1_j2l21_0] 0
x[j1l10_1_j2l21_1] 0
x[j1l10_1_j2l21_2] 0
x[j1l10_1_j2l21_3] 1
x[j1l10_1_j2l21_4] 0
x[j1l10_1_j2l22_0] 0
x[j1l10_1_j2l22_1] 0
x[j1l10_1_j2l22_2] 0
x[j1l10_1_j2l22_3] 0
x[j1l10_1_j2l22_4] 0
x[j1l10_1_j2l23_0] 0
x[j1l10_1_j2l23_1] 0
x[j1l10_1_j2l23_2] 0
x[j1l10_1_j2l23_3] 0
x[j1l10_1_j2l24_0] 0
x[j1l10_1_j2l24_1] 0
x[j1l10_1_j2l24_2] 0
x[j1l10_1_j2l24_3] 0
x[j1l10_1_j2l24_4] 0
x[j1l10_2_j2l20_0] 0
x[j1l10_2_j2l20_1] 0
x[j1l10_2_j2l20_2] 0
x[j1l10_2_j2l20_3] 0
x[j1l10_2_j2l20_4] 0
x[j1l10_2_j2l21_0] 0
x[j1l10_2_j2l21_1] 0
x[j1l10_2_j2l21_2] 0
x[j1l10_2_j2l21_3] 0
x[j1l10_2_j2l21_4] 0
x[j1l10_2_j2l22_0] 0
x[j1l10_2_j2l22_1] 0
x[j1l10_2_j2l22_2] 0
x[j1l10_2_j2l22_3] 0
x[j1l10_2_j2l22_4] 0
x[j1l10_2_j2l23_0] 0
x[j1l10_2_j2l23_1] 0
x[j1l10_2_j2l23_2] 0
x[j1l10_2_j2l23_3] 0
x[j1l10_2_j2l24_0] 0
x[j1l10_2_j2l24_1] 0
x[j1l10_2_j2l24_2] 0
x[j1l10_2_j2l24_3] 0
x[j1l10_2_j2l24_4] 0
x[j1l10_3_j2l20_0] 0
x[j1l10_3_j2l20_1] 0
x[j1l10_3_j2l20_2] 0
x[j1l10_3_j2l20_3] 0
x[j1l10_3_j2l20_4] 0
x[j1l10_3_j2l21_0] 0
x[j1l10_3_j2l21_1] 0
x[j1l10_3_j2l21_2] 0
x[j1l10_3_j2l21_3] 0
x[j1l10_3_j2l21_4] 0
x[j1l10_3_j2l22_0] 0
x[j1l10_3_j2l22_1] 0
x[j1l10_3_j2l22_2] 0
x[j1l10_3_j2l22_3] 0
x[j1l10_3_j2l22_4] 0
x[j1l10_3_j2l23_0] 0
x[j1l10_3_j2l23_1] 0
x[j1l10_3_j2l23_2] 0
x[j1l10_3_j2l23_3] 0
x[j1l10_3_j2l24_0] 0
x[j1l10_3_j2l24_1] 0
x[j1l10_3_j2l24_2] 0
x[j1l10_3_j2l24_3] 0
x[j1l10_3_j2l24_4] 0
x[j1l10_4_j2l20_0] 0
x[j1l10_4_j2l20_1] 0
x[j1l10_4_j2l20_2] 0
x[j1l10_4_j2l20_3] 0
x[j1l10_4_j2l20_4] 0
x[j1l10_4_j2l21_0] 0
x[j1l10_4_j2l21_1] 0
x[j1l10_4_j2l21_2] 0
x[j1l10_4_j2l21_3] 0
x[j1l10_4_j2l21_4] 0
x[j1l10_4_j2l22_0] 0
x[j1l10_4_j2l22_1] 0
x[j1l10_4_j2l22_2] 0
x[j1l10_4_j2l22_3] 0
x[j1l10_4_j2l22_4] 0
x[j1l10_4_j2l23_0] 0
x[j1l10_4_j2l23_1] 0
x[j1l10_4_j2l23_2] 0
x[j1l10_4_j2l23_3] 0
x[j1l10_4_j2l24_0] 0
x[j1l10_4_j2l24_1] 0
x[j1l10_4_j2l24_2] 0
x[j1l10_4_j2l24_3] 0
x[j1l10_4_j2l24_4] 0
x[j1l11_0_j2l21_0] 0
x[j1l11_0_j2l21_1] 0
x[j1l11_0_j2l21_2] 0
x[j1l11_0_j2l21_3] 0
x[j1l11_0_j2l21_4] 0
x[j1l11_0_j2l22_0] 0
x[j1l11_0_j2l22_1] 0
x[j1l11_0_j2l22_2] 1
x[j1l11_0_j2l22_3] 0
x[j1l11_0_j2l22_4] 0
x[j1l11_0_j2l23_0] 0
x[j1l11_0_j2l23_1] 0
x[j1l11_0_j2l23_2] 0
x[j1l11_0_j2l23_3] 0
x[j1l11_0_j2l24_0] 0
x[j1l11_0_j2l24_1] 1
x[j1l11_0_j2l24_2] 0
x[j1l11_0_j2l24_3] 0
x[j1l11_0_j2l24_4] 0
x[j1l11_1_j2l21_0] 0
x[j1l11_1_j2l21_1] 0
x[j1l11_1_j2l21_2] 0
x[j1l11_1_j2l21_3] 0
x[j1l11_1_j2l21_4] 0
x[j1l11_1_j2l22_0] 0
x[j1l11_1_j2l22_1] 0
x[j1l11_1_j2l22_2] 0
x[j1l11_1_j2l22_3] 1
x[j1l11_1_j2l22_4] 0
x[j1l11_1_j2l23_0] 0
x[j1l11_1_j2l23_1] 0
x[j1l11_1_j2l23_2] 0
x[j1l11_1_j2l23_3] 0
x[j1l11_1_j2l24_0] 0
x[j1l11_1_j2l24_1] 0
x[j1l11_1_j2l24_2] 0
x[j1l11_1_j2l24_3] 0
x[j1l11_1_j2l24_4] 0
x[j1l11_2_j2l21_0] 0
x[j1l11_2_j2l21_1] 0
x[j1l11_2_j2l21_2] 0
x[j1l11_2_j2l21_3] 0
x[j1l11_2_j2l21_4] 0
x[j1l11_2_j2l22_0] 0
x[j1l11_2_j2l22_1] 0
x[j1l11_2_j2l22_2] 0
x[j1l11_2_j2l22_3] 0
x[j1l11_2_j2l22_4] 0
x[j1l11_2_j2l23_0] 0
x[j1l11_2_j2l23_1] 0
x[j1l11_2_j2l23_2] 0
x[j1l11_2_j2l23_3] 0
x[j1l11_2_j2l24_0] 0
x[j1l11_2_j2l24_1] 0
x[j1l11_2_j2l24_2] 0
x[j1l11_2_j2l24_3] 1
x[j1l11_2_j2l24_4] 0
x[j1l11_3_j2l21_0] 0
x[j1l11_3_j2l21_1] 0
x[j1l11_3_j2l21_2] 0
x[j1l11_3_j2l21_3] 0
x[j1l11_3_j2l21_4] 0
x[j1l11_3_j2l22_0] 0
x[j1l11_3_j2l22_1] 0
x[j1l11_3_j2l22_2] 0
x[j1l11_3_j2l22_3] 0
x[j1l11_3_j2l22_4] 0
x[j1l11_3_j2l23_0] 0
x[j1l11_3_j2l23_1] 0
x[j1l11_3_j2l23_2] 0
x[j1l11_3_j2l23_3] 0
x[j1l11_3_j2l24_0] 0
x[j1l11_3_j2l24_1] 0
x[j1l11_3_j2l24_2] 0
x[j1l11_3_j2l24_3] 0
x[j1l11_3_j2l24_4] 0
x[j1l11_4_j2l21_0] 0
x[j1l11_4_j2l21_1] 0
x[j1l11_4_j2l21_2] 0
x[j1l11_4_j2l21_3] 0
x[j1l11_4_j2l21_4] 0
x[j1l11_4_j2l22_0] 0
x[j1l11_4_j2l22_1] 0
x[j1l11_4_j2l22_2] 0
x[j1l11_4_j2l22_3] 0
x[j1l11_4_j2l22_4] 1
x[j1l11_4_j2l23_0] 0
x[j1l11_4_j2l23_1] 0
x[j1l11_4_j2l23_2] 0
x[j1l11_4_j2l23_3] 0
x[j1l11_4_j2l24_0] 0
x[j1l11_4_j2l24_1] 0
x[j1l11_4_j2l24_2] 0
x[j1l11_4_j2l24_3] 0
x[j1l11_4_j2l24_4] 0
x[j1l12_0_j2l22_0] 0
x[j1l12_0_j2l22_1] 0
x[j1l12_0_j2l22_2] 0
x[j1l12_0_j2l22_3] 0
x[j1l12_0_j2l22_4] 0
x[j1l12_0_j2l23_0] 0
x[j1l12_0_j2l23_1] 0
x[j1l12_0_j2l23_2] 0
x[j1l12_0_j2l23_3] 0
x[j1l12_0_j2l24_0] 1
x[j1l12_0_j2l24_1] 0
x[j1l12_0_j2l24_2] 1
x[j1l12_0_j2l24_3] 0
x[j1l12_0_j2l24_4] 0
x[j1l12_1_j2l22_0] 0
x[j1l12_1_j2l22_1] 0
x[j1l12_1_j2l22_2] 0
x[j1l12_1_j2l22_3] 0
x[j1l12_1_j2l22_4] 0
x[j1l12_1_j2l23_0] 0
x[j1l12_1_j2l23_1] 0
x[j1l12_1_j2l23_2] 0
x[j1l12_1_j2l23_3] 0
x[j1l12_1_j2l24_0] 0
x[j1l12_1_j2l24_1] 0
x[j1l12_1_j2l24_2] 0
x[j1l12_1_j2l24_3] 1
x[j1l12_1_j2l24_4] 0
x[j1l12_2_j2l22_0] 0
x[j1l12_2_j2l22_1] 0
x[j1l12_2_j2l22_2] 0
x[j1l12_2_j2l22_3] 0
x[j1l12_2_j2l22_4] 0
x[j1l12_2_j2l23_0] 0
x[j1l12_2_j2l23_1] 0
x[j1l12_2_j2l23_2] 0
x[j1l12_2_j2l23_3] 0
x[j1l12_2_j2l24_0] 0
x[j1l12_2_j2l24_1] 0
x[j1l12_2_j2l24_2] 0
x[j1l12_2_j2l24_3] 0
x[j1l12_2_j2l24_4] 0
x[j1l12_3_j2l22_0] 0
x[j1l12_3_j2l22_1] 0
x[j1l12_3_j2l22_2] 0
x[j1l12_3_j2l22_3] 0
x[j1l12_3_j2l22_4] 0
x[j1l12_3_j2l23_0] 0
x[j1l12_3_j2l23_1] 0
x[j1l12_3_j2l23_2] 0
x[j1l12_3_j2l23_3] 0
x[j1l12_3_j2l24_0] 0
x[j1l12_3_j2l24_1] 0
x[j1l12_3_j2l24_2] 0
x[j1l12_3_j2l24_3] 0
x[j1l12_3_j2l24_4] 0
x[j1l12_4_j2l22_0] 0
x[j1l12_4_j2l22_1] 0
x[j1l12_4_j2l22_2] 0
x[j1l12_4_j2l22_3] 0
x[j1l12_4_j2l22_4] 0
x[j1l12_4_j2l23_0] 0
x[j1l12_4_j2l23_1] 0
x[j1l12_4_j2l23_2] 0
x[j1l12_4_j2l23_3] 0
x[j1l12_4_j2l24_0] 0
x[j1l12_4_j2l24_1] 0
x[j1l12_4_j2l24_2] 0
x[j1l12_4_j2l24_3] 0
x[j1l12_4_j2l24_4] 0
x[j1l13_0_j2l23_0] 0
x[j1l13_0_j2l23_1] 0
x[j1l13_0_j2l23_2] 0
x[j1l13_0_j2l23_3] 0
x[j1l13_0_j2l24_0] 1
x[j1l13_0_j2l24_1] 0
x[j1l13_0_j2l24_2] 1
x[j1l13_0_j2l24_3] 0
x[j1l13_0_j2l24_4] 0
x[j1l13_1_j2l23_0] 0
x[j1l13_1_j2l23_1] 0
x[j1l13_1_j2l23_2] 0
x[j1l13_1_j2l23_3] 0
x[j1l13_1_j2l24_0] 0
x[j1l13_1_j2l24_1] 1
x[j1l13_1_j2l24_2] 0
x[j1l13_1_j2l24_3] 0
x[j1l13_1_j2l24_4] 0
x[j1l13_2_j2l23_0] 0
x[j1l13_2_j2l23_1] 0
x[j1l13_2_j2l23_2] 0
x[j1l13_2_j2l23_3] 0
x[j1l13_2_j2l24_0] 0
x[j1l13_2_j2l24_1] 0
x[j1l13_2_j2l24_2] 0
x[j1l13_2_j2l24_3] 1
x[j1l13_2_j2l24_4] 0
x[j1l13_3_j2l23_0] 0
x[j1l13_3_j2l23_1] 0
x[j1l13_3_j2l23_2] 0
x[j1l13_3_j2l23_3] 0
x[j1l13_3_j2l24_0] 0
x[j1l13_3_j2l24_1] 0
x[j1l13_3_j2l24_2] 0
x[j1l13_3_j2l24_3] 0
x[j1l13_3_j2l24_4] 1
x[j1l14_0_j2l24_0] 0
x[j1l14_0_j2l24_1] 0
x[j1l14_0_j2l24_2] 1
x[j1l14_0_j2l24_3] 0
x[j1l14_0_j2l24_4] 0
x[j1l14_1_j2l24_0] 0
x[j1l14_1_j2l24_1] 0
x[j1l14_1_j2l24_2] 0
x[j1l14_1_j2l24_3] 0
x[j1l14_1_j2l24_4] 0
x[j1l14_2_j2l24_0] 0
x[j1l14_2_j2l24_1] 0
x[j1l14_2_j2l24_2] 0
x[j1l14_2_j2l24_3] 0
x[j1l14_2_j2l24_4] 0
x[j1l14_3_j2l24_0] 0
x[j1l14_3_j2l24_1] 0
x[j1l14_3_j2l24_2] 0
x[j1l14_3_j2l24_3] 0
x[j1l14_3_j2l24_4] 0
x[j1l14_4_j2l24_0] 0
x[j1l14_4_j2l24_1] 0
x[j1l14_4_j2l24_2] 0
x[j1l14_4_j2l24_3] 0
x[j1l14_4_j2l24_4] 0
s[j0_l0_i1] 9120
s[j0_l1_i0] 7680
s[j0_l2_i2] 4800
s[j0_l3_i3] 1920
s[j0_l4_i4] 480
s[j1_l0_i3] 12457
s[j1_l1_i1] 10958
s[j1_l2_i2] 9518
s[j1_l3_i0] 5039
s[j1_l4_i4] 3599
s[j2_l0_i0] 13818
s[j2_l1_i2] 11137
s[j2_l2_i3] 6300
s[j2_l3_i1] 3420
s[j2_l4_i4] 1980
s[j3_l0_i0] 18496
s[j3_l1_i3] 15616
s[j3_l2_i2] 12736
s[j3_l3_i4] 8118
s[j4_l0_i0] 12358
s[j4_l1_i3] 10918
s[j4_l2_i0] 9478
s[j4_l3_i2] 8038
s[j4_l4_i4] 5158
Z_FO 250662
